696676
0,71,62,6,35,228,132,154,111,26,168,39,80,129,101,61,54,86,34,93,107,49,150,27,77,214,74,204,33,36,191,178,195,88,106,160,115,183,100,165,8,67,95,90,143,25,21,19,182,209,116,144,210,155,4,43,222,175,16,46,224,12,219,63,29,14,136,59,15,188,184,137,2,207,158,177,30,198,22,68,225,176,50,97,41,159,112,72,208,217,205,135,194,192,83,166,78,94,56,75,173,28,113,118,85,69,125,121,151,190,7,96,193,164,119,109,13,200,9,197,199,64,153,163,213,226,133,47,110,18,124,45,196,142,10,138,57,58,220,51,24,122,84,187,180,123,172,130,147,60,181,79,131,203,171,167,92,212,44,211,229,103,5,202,37,223,32,152,216,20,3,141,169,149,170,185,89,108,87,227,128,145,11,186,102,81,1,114,148,157,179,120,76,221,40,127,105,140,218,23,65,189,98,201,104,174,53,55,17,91,52,99,215,42,38,206,146,126,162,31,117,139,70,48,66,73,156,82,134,161,0